(declare-fun ExpandObjSwitcher () Real)
(declare-fun CreateAsClass () Bool)
(declare-fun ExpandObjSwitcher_2 () Real)
(declare-fun Constructed_Argument_t () String)
(declare-fun Constructed_Argument_Array_Length () Int)
(declare-fun Constructed_Argument_2_t () String)
(define-funs-rec ( ( str.repeat ((x!1 String) (x!2 Int)) String)
                   ( str.whiteLeft ((x!1 String) (x!2 Int)) Int)
                   ( str.whiteRight ((x!1 String) (x!2 Int)) Int))
                 ( (ite (<= x!2 0)
                        ""
                        (str.++ x!1 ((_ str.repeat 0) x!1 (- x!2 1))))
                   (ite (= (str.at x!1 x!2) " ")
                        ((_ str.whiteLeft 0) x!1 (+ x!2 1))
                        x!2)
                   (ite (= (str.at x!1 x!2) " ")
                        ((_ str.whiteRight 0) x!1 (- x!2 1))
                        x!2)))
(assert (= ExpandObjSwitcher 1.0))
(assert CreateAsClass)
(assert (= ExpandObjSwitcher_2 3.0))
(assert (= Constructed_Argument_t "array_number"))
(assert (>= Constructed_Argument_Array_Length 0))
(assert (not (= Constructed_Argument_2_t "string")))
(assert (not (= Constructed_Argument_2_t "number")))
(assert (not (= Constructed_Argument_2_t "boolean")))
(assert (not (= Constructed_Argument_2_t "object")))
(assert (not (= Constructed_Argument_2_t "array_number")))
(assert (not (= Constructed_Argument_2_t "array_string")))
(assert (not (= Constructed_Argument_2_t "array_bool")))
(assert (= Constructed_Argument_2_t "null"))

(check-sat)
